(set-option :print-success false)
(set-logic QF_UF)
(declare-sort x34 0)
(declare-sort x131 0)
(declare-fun x49 () x131)
(declare-fun x50 (x131 x131) x131)
(declare-fun x82 (x131 x131) x131)
(declare-fun x59 () x131)
(declare-fun x89 () x131)
(declare-fun x155 () x131)
(declare-fun x127 () x131)
(assert (let ((x31 (x50 x155 x155)) (x37 (x50 x127 x127)) (x108 (x50 x49 x49)) (x95 (x50 x89 x89)) (x2 (x50 x59 x59))) (or (and (not (= x127 x37)) (and (not (= x31 x127)) (and (and (not (= x2 x127)) (not (= x127 x95))) (not (= x127 x108))))) (or (or (and (not (= x49 x37)) (and (and (and (not (= x49 x2)) (not (= x95 x49))) (not (= x49 x108))) (not (= x49 x31)))) (or (and (not (= x37 x89)) (and (and (not (= x108 x89)) (and (not (= x95 x89)) (not (= x89 x2)))) (not (= x31 x89)))) (and (and (and (not (= x59 x108)) (and (not (= x59 x2)) (not (= x95 x59)))) (not (= x31 x59))) (not (= x59 x37))))) (and (not (= x155 x37)) (and (not (= x31 x155)) (and (not (= x155 x108)) (and (not (= x2 x155)) (not (= x155 x95))))))))))
(assert (let ((x31 (x50 x59 x89)) (x53 (x50 x127 x59)) (x79 (x50 x155 x89)) (x62 (x50 x59 x49)) (x2 (= x59 (x50 x59 x59))) (x123 (= (x50 x49 x49) x49)) (x6 (= x155 (x50 x155 x155))) (x115 (x50 x89 x127)) (x116 (x50 x49 x89)) (x112 (x50 x49 x127)) (x108 (x50 x89 x59)) (x68 (x50 x49 x59)) (x14 (x50 x127 x89)) (x73 (x50 x155 x49)) (x101 (x50 x127 x155)) (x153 (x50 x89 x155)) (x11 (x50 x155 x127)) (x151 (x50 x59 x155)) (x48 (x50 x49 x155)) (x7 (x50 x127 x49)) (x63 (x50 x59 x127)) (x39 (x50 x155 x59)) (x37 (= x89 (x50 x89 x89))) (x86 (x50 x89 x49)) (x64 (= (x50 x127 x127) x127))) (let ((x66 (and (not (= x7 x127)) (and (and (and (not (= x62 x59)) (not (= x86 x89))) (not x123)) (not (= x73 x155))))) (x119 (and (not x64) (and (and (not (= x112 x49)) (and (not (= x63 x59)) (not (= x89 x115)))) (not (= x11 x155))))) (x95 (and (not (= x127 x53)) (and (and (and (not x2) (not (= x89 x108))) (not (= x68 x49))) (not (= x155 x39))))) (x17 (and (not (= x101 x127)) (and (and (and (not (= x153 x89)) (not (= x59 x151))) (not (= x48 x49))) (not x6)))) (x113 (and (and (not (= x155 x79)) (and (not (= x116 x49)) (and (not (= x59 x31)) (not x37)))) (not (= x14 x127))))) (or (or (and x64 x119) (or (and x119 (= x101 x155)) (or (and (= x49 x7) x119) (or (and x119 (= x14 x89)) (and (= x53 x59) x119))))) (or (or (or (and x66 (= x112 x127)) (or (and x66 (= x48 x155)) (or (and x66 x123) (or (and x66 (= x89 x116)) (and (= x59 x68) x66))))) (or (or (and x95 (= x63 x127)) (or (and (= x155 x151) x95) (or (or (and x95 x2) (and (= x89 x31) x95)) (and (= x62 x49) x95)))) (or (or (and x113 (= x155 x153)) (or (or (and x37 x113) (and x113 (= x59 x108))) (and (= x49 x86) x113))) (and x113 (= x115 x127))))) (or (and (= x11 x127) x17) (or (or (or (and (= x79 x89) x17) (and (= x59 x39) x17)) (and x17 (= x49 x73))) (and x6 x17))))))))
(assert (let ((x4 (x50 x127 x59)) (x101 (x50 x89 x59)) (x152 (x50 x127 x49)) (x55 (x50 x49 x127)) (x22 (x50 x49 x49)) (x67 (x50 x59 x155)) (x99 (x50 x49 x89)) (x14 (x50 x59 x59)) (x64 (x50 x59 x49)) (x157 (x50 x89 x155)) (x122 (x50 x155 x155)) (x72 (x50 x89 x127)) (x38 (x50 x49 x59)) (x147 (x50 x89 x49)) (x25 (x50 x59 x127)) (x7 (x50 x59 x89)) (x136 (x50 x155 x59)) (x114 (x50 x127 x155)) (x18 (x50 x49 x155)) (x103 (x50 x155 x89)) (x44 (x50 x89 x89)) (x144 (x50 x127 x89)) (x100 (x50 x155 x127)) (x124 (x50 x155 x49)) (x98 (x50 x127 x127))) (let ((x150 (= x44 x49)) (x118 (= x14 x127)) (x73 (= x144 x59)) (x129 (= x49 x99)) (x26 (= x124 x127)) (x69 (= x103 x127)) (x33 (= x7 x127)) (x141 (= x127 x4)) (x156 (= x49 x25)) (x27 (= x64 x49)) (x60 (= x7 x49)) (x46 (= x89 x98)) (x97 (= x22 x89)) (x85 (= x44 x89)) (x130 (= x122 x49)) (x102 (= x155 x22)) (x68 (= x99 x59)) (x159 (= x147 x127)) (x13 (= x136 x155)) (x92 (= x127 x64)) (x106 (= x72 x127)) (x21 (= x89 x103)) (x117 (= x155 x55)) (x47 (= x103 x49)) (x140 (= x127 x98)) (x83 (= x155 x18)) (x76 (= x122 x127)) (x86 (= x59 x22)) (x42 (= x144 x49)) (x61 (= x144 x127)) (x20 (= x114 x155)) (x32 (= x49 x4)) (x116 (= x136 x59)) (x133 (= x101 x49)) (x143 (= x89 x4)) (x126 (= x18 x89)) (x128 (= x155 x72)) (x115 (= x114 x59)) (x3 (= x155 x4)) (x139 (= x152 x49)) (x96 (= x127 x101)) (x93 (= x127 x22)) (x104 (= x49 x124)) (x56 (= x49 x98)) (x135 (= x136 x127)) (x95 (= x101 x59)) (x28 (= x89 x67)) (x107 (= x100 x127)) (x10 (= x25 x127)) (x36 (= x157 x89)) (x35 (= x49 x22)) (x15 (= x147 x49)) (x12 (= x89 x38)) (x51 (= x67 x155)) (x132 (= x89 x55)) (x17 (= x25 x59)) (x52 (= x89 x124)) (x80 (= x49 x100)) (x75 (= x155 x64)) (x105 (= x49 x14)) (x158 (= x49 x72)) (x110 (= x89 x99)) (x111 (= x157 x155)) (x37 (= x59 x38)) (x113 (= x59 x64)) (x123 (= x103 x59)) (x8 (= x155 x147)) (x1 (= x114 x127)) (x79 (= x59 x4)) (x41 (= x155 x122)) (x145 (= x100 x89)) (x43 (= x127 x152)) (x54 (= x67 x127)) (x39 (= x157 x59)) (x137 (= x89 x25)) (x70 (= x157 x49)) (x91 (= x64 x89)) (x23 (= x155 x152)) (x65 (= x18 x49)) (x78 (= x152 x89)) (x108 (= x7 x59)) (x29 (= x147 x89)) (x63 (= x59 x55)) (x6 (= x72 x59)) (x45 (= x89 x72)) (x31 (= x44 x59)) (x142 (= x55 x49)) (x11 (= x59 x98)) (x2 (= x14 x59)) (x81 (= x38 x127)) (x138 (= x155 x7)) (x19 (= x44 x155)) (x120 (= x155 x25)) (x84 (= x100 x155)) (x74 (= x155 x101)) (x62 (= x59 x147)) (x30 (= x89 x101)) (x149 (= x114 x89)) (x148 (= x127 x157)) (x134 (= x38 x49)) (x119 (= x14 x89)) (x88 (= x127 x44)) (x112 (= x59 x100)) (x16 (= x127 x55)) (x153 (= x59 x18)) (x90 (= x122 x89)) (x53 (= x59 x152)) (x94 (= x155 x124)) (x71 (= x89 x7)) (x125 (= x136 x49)) (x77 (= x127 x18)) (x121 (= x155 x98)) (x87 (= x14 x155)) (x57 (= x155 x99)) (x154 (= x99 x127)) (x66 (= x67 x59)) (x48 (= x59 x122)) (x109 (= x49 x67)) (x151 (= x124 x59)) (x5 (= x89 x144)) (x40 (= x38 x155)) (x58 (= x89 x136)) (x24 (= x49 x114)) (x146 (= x103 x155)) (x9 (= x144 x155))) (and (and (or (or (and x121 x121) (or (or (or (and x9 x128) (and x3 x120)) (and x23 x117)) (and x20 x84))) (or (or (or (or (or (or (and x8 x57) (or (and x138 x74) (and x19 x19))) (and x146 x111)) (and x128 x9)) (or (or (or (or (and x87 x87) (and x74 x138)) (and x75 x40)) (and x13 x51)) (and x3 x120))) (or (or (or (and x102 x102) (or (and x75 x40) (and x8 x57))) (and x83 x94)) (and x23 x117))) (or (and x20 x84) (or (and x41 x41) (or (or (and x111 x146) (and x13 x51)) (and x94 x83)))))) (and (and (or (or (or (or (or (or (and x58 x28) (and x21 x36)) (and x52 x126)) (and x90 x90)) (and x149 x145)) (or (or (or (or (or (and x29 x110) (or (and x85 x85) (and x71 x30))) (and x21 x36)) (and x45 x5)) (or (or (or (or (and x30 x71) (and x119 x119)) (and x12 x91)) (and x28 x58)) (and x143 x137))) (or (or (and x52 x126) (or (or (and x12 x91) (and x29 x110)) (and x97 x97))) (and x132 x78)))) (or (and x46 x46) (or (and x149 x145) (or (or (and x5 x45) (and x143 x137)) (and x132 x78))))) (or (or (and x11 x11) (or (and x115 x112) (or (or (and x17 x79) (and x6 x73)) (and x63 x53)))) (or (or (and x115 x112) (or (and x48 x48) (or (and x151 x153) (or (and x123 x39) (and x66 x116))))) (or (or (or (and x17 x79) (or (or (and x113 x37) (or (and x95 x108) (and x2 x2))) (and x116 x66))) (or (and x6 x73) (or (and x39 x123) (or (or (and x95 x108) (and x31 x31)) (and x68 x62))))) (or (or (or (and x86 x86) (or (and x113 x37) (and x68 x62))) (and x153 x151)) (and x63 x53)))))) (or (or (or (and x24 x80) (or (and x130 x130) (or (or (and x47 x70) (and x109 x125)) (and x104 x65)))) (or (or (or (or (or (or (and x60 x133) (and x105 x105)) (and x27 x134)) (and x109 x125)) (and x32 x156)) (or (and x158 x42) (or (and x70 x47) (or (and x15 x129) (or (and x150 x150) (and x60 x133)))))) (or (and x142 x139) (or (or (or (and x15 x129) (and x134 x27)) (and x35 x35)) (and x65 x104))))) (or (and x56 x56) (or (or (or (and x156 x32) (and x42 x158)) (and x142 x139)) (and x24 x80)))))) (or (or (or (or (or (or (or (or (and x96 x33) (and x88 x88)) (and x154 x159)) (and x148 x69)) (and x61 x106)) (or (and x10 x141) (or (and x135 x54) (or (or (and x96 x33) (and x118 x118)) (and x92 x81))))) (or (and x43 x16) (or (and x77 x26) (or (or (and x92 x81) (and x154 x159)) (and x93 x93))))) (or (or (or (and x77 x26) (or (and x54 x135) (and x69 x148))) (and x76 x76)) (and x1 x107))) (or (and x140 x140) (or (and x1 x107) (or (or (and x141 x10) (and x106 x61)) (and x16 x43)))))))))
(assert (let ((x123 (x50 x49 x89)) (x17 (x50 x155 x49)) (x62 (x50 x89 x49)) (x79 (x50 x155 x89)) (x6 (x50 x155 x127)) (x37 (x50 x59 x127)) (x116 (x50 x89 x127)) (x39 (x50 x49 x49)) (x53 (x50 x127 x59)) (x66 (x50 x49 x59)) (x31 (x50 x59 x155)) (x151 (x50 x49 x155)) (x73 (x50 x155 x155)) (x63 (x50 x127 x89)) (x48 (x50 x155 x59)) (x112 (x50 x127 x155)) (x153 (x50 x49 x127)) (x2 (x50 x59 x59)) (x113 (x50 x89 x59)) (x86 (x50 x89 x155)) (x115 (x50 x127 x49)) (x108 (x50 x59 x49)) (x68 (x50 x89 x89)) (x95 (x50 x59 x89)) (x11 (x50 x127 x127))) (and (and (and (and (and (and (and (and (or (or (or (= x2 x49) (or (= x2 x89) (= x2 x59))) (= x155 x2)) (= x2 x127)) (or (= x95 x127) (or (= x155 x95) (or (= x95 x49) (or (= x95 x59) (= x89 x95)))))) (or (or (or (= x108 x49) (or (= x108 x89) (= x59 x108))) (= x155 x108)) (= x127 x108))) (or (or (or (= x49 x31) (or (= x31 x59) (= x31 x89))) (= x31 x155)) (= x31 x127))) (or (= x37 x127) (or (or (= x49 x37) (or (= x89 x37) (= x59 x37))) (= x37 x155)))) (and (or (= x116 x127) (or (= x155 x116) (or (or (= x116 x89) (= x116 x59)) (= x49 x116)))) (and (and (or (or (= x155 x62) (or (= x49 x62) (or (= x62 x89) (= x59 x62)))) (= x127 x62)) (and (or (= x127 x68) (or (= x155 x68) (or (= x49 x68) (or (= x68 x59) (= x68 x89))))) (or (= x113 x127) (or (= x113 x155) (or (= x113 x49) (or (= x113 x59) (= x89 x113))))))) (or (or (= x155 x86) (or (= x49 x86) (or (= x89 x86) (= x59 x86)))) (= x86 x127))))) (and (or (or (or (= x49 x153) (or (= x59 x153) (= x153 x89))) (= x153 x155)) (= x127 x153)) (and (or (= x151 x127) (or (= x155 x151) (or (= x151 x49) (or (= x89 x151) (= x59 x151))))) (and (or (or (= x155 x39) (or (or (= x39 x89) (= x59 x39)) (= x39 x49))) (= x39 x127)) (and (or (or (or (or (= x123 x89) (= x123 x59)) (= x49 x123)) (= x123 x155)) (= x127 x123)) (or (= x127 x66) (or (or (= x66 x49) (or (= x89 x66) (= x66 x59))) (= x155 x66)))))))) (and (and (and (and (or (or (= x155 x79) (or (= x49 x79) (or (= x79 x59) (= x89 x79)))) (= x79 x127)) (or (or (= x155 x48) (or (= x48 x49) (or (= x48 x59) (= x48 x89)))) (= x127 x48))) (or (= x17 x127) (or (= x17 x155) (or (or (= x17 x89) (= x59 x17)) (= x49 x17))))) (or (= x73 x127) (or (or (or (= x73 x89) (= x73 x59)) (= x49 x73)) (= x73 x155)))) (or (= x6 x127) (or (or (= x49 x6) (or (= x6 x59) (= x89 x6))) (= x155 x6))))) (and (and (and (or (or (or (= x49 x115) (or (= x89 x115) (= x59 x115))) (= x155 x115)) (= x127 x115)) (and (or (or (= x155 x53) (or (= x53 x49) (or (= x53 x59) (= x53 x89)))) (= x127 x53)) (or (or (= x155 x63) (or (or (= x63 x59) (= x89 x63)) (= x49 x63))) (= x127 x63)))) (or (= x112 x127) (or (= x155 x112) (or (= x112 x49) (or (= x89 x112) (= x59 x112)))))) (or (= x11 x127) (or (or (or (= x89 x11) (= x11 x59)) (= x11 x49)) (= x155 x11)))))))
(assert (or (and (not (= (x50 (x50 x127 x127) x127) x127)) (and (not (= x155 (x50 (x50 x127 x155) x127))) (and (not (= (x50 (x50 x127 x49) x127) x49)) (and (not (= x59 (x50 (x50 x127 x59) x127))) (not (= x89 (x50 (x50 x127 x89) x127))))))) (or (or (or (and (not (= x127 (x50 (x50 x59 x127) x59))) (and (and (and (not (= (x50 (x50 x59 x59) x59) x59)) (not (= (x50 (x50 x59 x89) x59) x89))) (not (= x49 (x50 (x50 x59 x49) x59)))) (not (= (x50 (x50 x59 x155) x59) x155)))) (and (and (and (not (= x49 (x50 (x50 x89 x49) x89))) (and (not (= x89 (x50 (x50 x89 x89) x89))) (not (= (x50 (x50 x89 x59) x89) x59)))) (not (= x155 (x50 (x50 x89 x155) x89)))) (not (= x127 (x50 (x50 x89 x127) x89))))) (and (not (= (x50 (x50 x49 x127) x49) x127)) (and (and (and (not (= (x50 (x50 x49 x59) x49) x59)) (not (= x89 (x50 (x50 x49 x89) x49)))) (not (= x49 (x50 (x50 x49 x49) x49)))) (not (= x155 (x50 (x50 x49 x155) x49)))))) (and (not (= (x50 (x50 x155 x127) x155) x127)) (and (not (= (x50 (x50 x155 x155) x155) x155)) (and (and (not (= (x50 (x50 x155 x89) x155) x89)) (not (= x59 (x50 (x50 x155 x59) x155)))) (not (= x49 (x50 (x50 x155 x49) x155)))))))))
(assert (let ((x37 (x50 x127 x127)) (x2 (x50 x59 x59)) (x31 (x50 x155 x155)) (x95 (x50 x89 x89)) (x108 (x50 x49 x49))) (or (= x127 (x50 x37 x37)) (or (or (or (= x59 (x50 x2 x2)) (= (x50 x95 x95) x89)) (= (x50 x108 x108) x49)) (= x155 (x50 x31 x31))))))
(assert (and (not (= x155 x127)) (and (not (= x127 x49)) (and (not (= x49 x155)) (and (and (not (= x155 x89)) (and (and (and (not (= x155 x59)) (and (not (= x49 x59)) (not (= x59 x89)))) (not (= x127 x59))) (not (= x89 x49)))) (not (= x89 x127)))))))
(assert (let ((x86 (not (= x49 (x50 x49 x49)))) (x63 (x50 x49 x127)) (x62 (x50 x89 x49)) (x6 (x50 x89 x127)) (x95 (x50 x89 x59)) (x2 (not (= x59 (x50 x59 x59)))) (x116 (x50 x155 x59)) (x37 (x50 x49 x59)) (x153 (x50 x49 x155)) (x115 (x50 x127 x155)) (x66 (x50 x59 x155)) (x108 (x50 x59 x89)) (x73 (x50 x127 x89)) (x123 (x50 x155 x89)) (x48 (not (= x155 (x50 x155 x155)))) (x39 (x50 x89 x155)) (x11 (not (= x127 (x50 x127 x127)))) (x151 (x50 x155 x49)) (x113 (x50 x59 x49)) (x79 (x50 x127 x59)) (x31 (not (= (x50 x89 x89) x89))) (x68 (x50 x49 x89)) (x53 (x50 x127 x49)) (x112 (x50 x155 x127)) (x17 (x50 x59 x127))) (and (and (and (and (and (and (and (and (or x31 x31) (or (not (= x95 x89)) (not (= x108 x89)))) (or (not (= x62 x89)) (not (= x89 x68)))) (or (not (= x123 x89)) (not (= x89 x39)))) (or (not (= x89 x73)) (not (= x89 x6)))) (and (or (not (= x17 x59)) (not (= x59 x79))) (and (or (not (= x66 x59)) (not (= x59 x116))) (and (or (not (= x37 x59)) (not (= x59 x113))) (and (or (not (= x108 x59)) (not (= x95 x59))) (or x2 x2)))))) (and (or (not (= x63 x49)) (not (= x49 x53))) (and (or (not (= x49 x151)) (not (= x49 x153))) (and (and (or (not (= x49 x113)) (not (= x37 x49))) (or (not (= x62 x49)) (not (= x49 x68)))) (or x86 x86))))) (and (and (and (or (not (= x151 x155)) (not (= x153 x155))) (and (or (not (= x155 x123)) (not (= x155 x39))) (or (not (= x116 x155)) (not (= x155 x66))))) (or x48 x48)) (or (not (= x155 x115)) (not (= x155 x112))))) (and (or x11 x11) (and (or (not (= x127 x112)) (not (= x115 x127))) (and (and (or (not (= x6 x127)) (not (= x73 x127))) (or (not (= x127 x79)) (not (= x17 x127)))) (or (not (= x127 x53)) (not (= x127 x63)))))))))
(assert (not (and (and (and (and (= (x50 x127 x89) x127) (and (= (x50 x127 x59) x89) (and (and (= (x50 x155 x155) x127) (and (and (and (= (x50 x155 x59) x155) (and (and (and (and (and (and (= x155 (x50 x89 x127)) (and (and (and (and (and (and (and (= x59 (x50 x59 x49)) (and (= x155 (x50 x59 x89)) (= x127 (x50 x59 x59)))) (= (x50 x59 x155) x49)) (= (x50 x59 x127) x89)) (= (x50 x89 x59) x59)) (= x49 (x50 x89 x89))) (= x127 (x50 x89 x49))) (= x89 (x50 x89 x155)))) (= x49 (x50 x49 x59))) (= x89 (x50 x49 x89))) (= x155 (x50 x49 x49))) (= (x50 x49 x155) x59)) (= x127 (x50 x49 x127)))) (= (x50 x155 x89) x59)) (= x89 (x50 x155 x49)))) (= (x50 x155 x127) x49)))) (= x49 (x50 x127 x49))) (= x155 (x50 x127 x155))) (= (x50 x127 x127) x59))))
(assert (let ((x39 (x50 x49 x49)) (x108 (x50 x49 x59)) (x113 (x50 x59 x89)) (x66 (x50 x59 x49)) (x53 (x50 x59 x127)) (x73 (x50 x155 x155)) (x11 (x50 x127 x127)) (x123 (x50 x89 x49)) (x6 (x50 x127 x155)) (x115 (x50 x49 x127)) (x112 (x50 x155 x127)) (x68 (x50 x89 x89)) (x79 (x50 x89 x155)) (x37 (x50 x127 x59)) (x63 (x50 x89 x127)) (x17 (x50 x49 x155)) (x62 (x50 x49 x89)) (x95 (x50 x89 x59)) (x116 (x50 x127 x89)) (x153 (x50 x127 x49)) (x2 (x50 x59 x59)) (x48 (x50 x59 x155)) (x151 (x50 x155 x49)) (x86 (x50 x155 x89)) (x31 (x50 x155 x59))) (and (and (and (and (and (not (= x112 x115)) (and (and (and (and (not (= x11 x53)) (and (not (= x112 x53)) (and (not (= x63 x53)) (not (= x115 x53))))) (not (= x63 x115))) (not (= x112 x63))) (not (= x63 x11)))) (not (= x115 x11))) (not (= x11 x112))) (and (and (and (and (not (= x153 x39)) (and (and (not (= x123 x153)) (and (not (= x123 x151)) (and (not (= x39 x123)) (and (and (and (not (= x66 x39)) (not (= x66 x123))) (not (= x151 x66))) (not (= x153 x66)))))) (not (= x39 x151)))) (not (= x153 x151))) (and (and (and (not (= x116 x62)) (and (not (= x62 x86)) (and (not (= x68 x116)) (and (and (not (= x62 x68)) (and (not (= x113 x116)) (and (not (= x113 x86)) (and (not (= x62 x113)) (not (= x68 x113)))))) (not (= x68 x86)))))) (not (= x116 x86))) (and (and (and (and (and (and (not (= x108 x95)) (and (not (= x2 x37)) (and (and (not (= x95 x2)) (not (= x108 x2))) (not (= x2 x31))))) (not (= x95 x31))) (not (= x95 x37))) (not (= x31 x108))) (not (= x37 x108))) (not (= x31 x37))))) (and (not (= x6 x73)) (and (and (not (= x17 x73)) (and (not (= x6 x79)) (and (and (and (and (and (not (= x48 x79)) (not (= x48 x17))) (not (= x73 x48))) (not (= x48 x6))) (not (= x79 x17))) (not (= x79 x73))))) (not (= x17 x6)))))) (and (and (and (and (and (not (= x39 x115)) (and (and (not (= x62 x115)) (and (not (= x62 x17)) (and (and (not (= x115 x108)) (and (not (= x17 x108)) (and (not (= x108 x62)) (not (= x108 x39))))) (not (= x39 x62))))) (not (= x17 x39)))) (not (= x17 x115))) (and (and (not (= x63 x79)) (and (and (not (= x123 x79)) (and (not (= x63 x68)) (and (not (= x79 x68)) (and (and (and (and (not (= x95 x68)) (not (= x95 x123))) (not (= x95 x79))) (not (= x63 x95))) (not (= x68 x123)))))) (not (= x123 x63)))) (and (not (= x48 x53)) (and (not (= x53 x66)) (and (and (and (and (and (not (= x2 x53)) (and (not (= x2 x48)) (and (not (= x113 x2)) (not (= x2 x66))))) (not (= x113 x66))) (not (= x113 x48))) (not (= x113 x53))) (not (= x66 x48))))))) (and (and (and (and (and (and (and (and (not (= x73 x31)) (and (not (= x151 x31)) (not (= x31 x86)))) (not (= x112 x31))) (not (= x151 x86))) (not (= x86 x73))) (not (= x112 x86))) (not (= x73 x151))) (not (= x151 x112))) (not (= x73 x112)))) (and (not (= x6 x11)) (and (not (= x11 x153)) (and (and (not (= x116 x11)) (and (not (= x6 x116)) (and (and (not (= x11 x37)) (and (not (= x37 x6)) (and (not (= x37 x153)) (not (= x37 x116))))) (not (= x116 x153))))) (not (= x6 x153)))))))))
(assert (or (and (and (and (not (= x49 (x50 x127 x49))) (and (not (= (x50 x127 x59) x59)) (not (= x89 (x50 x127 x89))))) (not (= x155 (x50 x127 x155)))) (not (= (x50 x127 x127) x127))) (or (and (not (= (x50 x155 x127) x127)) (and (and (not (= (x50 x155 x49) x49)) (and (not (= x59 (x50 x155 x59))) (not (= x89 (x50 x155 x89))))) (not (= x155 (x50 x155 x155))))) (or (and (not (= (x50 x49 x127) x127)) (and (and (not (= (x50 x49 x49) x49)) (and (not (= x59 (x50 x49 x59))) (not (= x89 (x50 x49 x89))))) (not (= x155 (x50 x49 x155))))) (or (and (not (= (x50 x89 x127) x127)) (and (and (and (not (= (x50 x89 x89) x89)) (not (= x59 (x50 x89 x59)))) (not (= x49 (x50 x89 x49)))) (not (= x155 (x50 x89 x155))))) (and (not (= (x50 x59 x127) x127)) (and (not (= (x50 x59 x155) x155)) (and (and (not (= (x50 x59 x59) x59)) (not (= x89 (x50 x59 x89)))) (not (= (x50 x59 x49) x49))))))))))
(assert (let ((x63 (x50 x89 x127)) (x119 (x50 x127 x89)) (x15 (x50 x127 x155)) (x120 (x50 x127 x127)) (x37 (x50 x59 x155)) (x113 (x50 x59 x127)) (x72 (x50 x49 x49)) (x86 (x50 x49 x59)) (x108 (x50 x59 x89)) (x6 (x50 x89 x49)) (x95 (x50 x59 x59)) (x53 (x50 x89 x155)) (x31 (x50 x59 x49)) (x116 (x50 x155 x59)) (x133 (x50 x155 x155)) (x60 (x50 x155 x127)) (x22 (x50 x155 x49)) (x97 (x50 x127 x49)) (x12 (x50 x49 x127)) (x62 (x50 x89 x59)) (x66 (x50 x127 x59)) (x14 (x50 x155 x89)) (x73 (x50 x89 x89)) (x144 (x50 x49 x155)) (x11 (x50 x49 x89))) (let ((x136 (= x155 x73)) (x138 (= x127 x144)) (x126 (= x155 x72)) (x4 (= x127 x108)) (x48 (= x108 x59)) (x141 (= x66 x127)) (x88 (= x63 x49)) (x147 (= x59 x6)) (x18 (= x86 x49)) (x5 (= x14 x59)) (x148 (= x63 x155)) (x20 (= x89 x120)) (x146 (= x59 x60)) (x81 (= x12 x49)) (x98 (= x116 x89)) (x52 (= x155 x6)) (x139 (= x155 x144)) (x135 (= x155 x97)) (x19 (= x127 x133)) (x92 (= x49 x60)) (x129 (= x89 x133)) (x29 (= x89 x72)) (x74 (= x127 x53)) (x26 (= x155 x12)) (x110 (= x6 x89)) (x27 (= x144 x89)) (x3 (= x89 x15)) (x128 (= x89 x63)) (x70 (= x53 x49)) (x112 (= x73 x89)) (x78 (= x37 x59)) (x51 (= x12 x59)) (x64 (= x49 x73)) (x158 (= x53 x155)) (x32 (= x14 x155)) (x69 (= x113 x155)) (x90 (= x11 x127)) (x45 (= x59 x22)) (x85 (= x31 x59)) (x41 (= x89 x97)) (x149 (= x144 x59)) (x117 (= x60 x89)) (x2 (= x59 x95)) (x83 (= x119 x89)) (x107 (= x60 x127)) (x9 (= x113 x89)) (x111 (= x59 x120)) (x71 (= x59 x86)) (x21 (= x155 x11)) (x10 (= x119 x127)) (x114 (= x6 x127)) (x23 (= x89 x12)) (x55 (= x49 x31)) (x143 (= x72 x127)) (x109 (= x49 x22)) (x65 (= x133 x49)) (x142 (= x155 x133)) (x153 (= x62 x59)) (x42 (= x155 x37)) (x104 (= x144 x49)) (x79 (= x73 x59)) (x57 (= x97 x59)) (x152 (= x6 x49)) (x94 (= x66 x89)) (x44 (= x11 x59)) (x101 (= x108 x49)) (x145 (= x59 x133)) (x125 (= x14 x49)) (x123 (= x95 x49)) (x16 (= x63 x127)) (x100 (= x31 x127)) (x76 (= x155 x120)) (x39 (= x155 x95)) (x47 (= x37 x49)) (x40 (= x59 x66)) (x130 (= x116 x155)) (x121 (= x49 x119)) (x8 (= x15 x59)) (x115 (= x89 x108)) (x132 (= x59 x53)) (x46 (= x14 x89)) (x156 (= x155 x22)) (x7 (= x49 x62)) (x35 (= x49 x116)) (x93 (= x119 x155)) (x56 (= x22 x127)) (x151 (= x127 x95)) (x75 (= x59 x119)) (x24 (= x127 x116)) (x96 (= x15 x49)) (x1 (= x127 x12)) (x159 (= x155 x66)) (x103 (= x89 x11)) (x33 (= x49 x113)) (x157 (= x86 x89)) (x99 (= x72 x59)) (x43 (= x113 x127)) (x91 (= x31 x89)) (x28 (= x86 x155)) (x68 (= x89 x95)) (x13 (= x63 x59)) (x36 (= x31 x155)) (x25 (= x127 x62)) (x102 (= x59 x113)) (x58 (= x72 x49)) (x80 (= x127 x14)) (x105 (= x89 x22)) (x150 (= x37 x89)) (x54 (= x15 x155)) (x140 (= x127 x120)) (x106 (= x127 x15)) (x154 (= x120 x49)) (x38 (= x155 x62)) (x84 (= x49 x66)) (x118 (= x49 x97)) (x77 (= x155 x60)) (x17 (= x89 x62)) (x124 (= x11 x49)) (x30 (= x73 x127)) (x61 (= x127 x97)) (x122 (= x86 x127)) (x137 (= x59 x116)) (x87 (= x37 x127)) (x134 (= x53 x89)) (x67 (= x108 x155))) (and (and (and (and (and (and (and (or (or (or x28 (or x38 x39)) x130) x159) (or (or (or x36 (or x67 x39)) x42) x69)) (and (and (or (or x47 (or (or x101 x123) x55)) x33) (or (or x35 (or (or x123 x7) x18)) x84)) (and (and (or x9 (or x150 (or (or x68 x115) x91))) (or (or (or (or x68 x17) x157) x98) x94)) (and (or (or x137 (or x71 (or x153 x2))) x40) (or (or x78 (or (or x48 x2) x85)) x102))))) (and (or (or (or x100 (or x151 x4)) x87) x43) (or (or x24 (or (or x25 x151) x122)) x141))) (and (and (or (or x74 (or x114 (or x30 x25))) x16) (or (or (or (or x4 x30) x90) x80) x10)) (and (and (and (or (or x125 (or (or x64 x101) x124)) x121) (or (or (or (or x64 x7) x152) x70) x88)) (and (and (or (or (or x44 (or x48 x79)) x5) x75) (or (or (or x147 (or x153 x79)) x132) x13)) (and (or x128 (or x134 (or x110 (or x112 x17)))) (or x83 (or (or x103 (or x112 x115)) x46))))) (and (or x148 (or x158 (or (or x38 x136) x52))) (or x93 (or (or (or x136 x67) x21) x32)))))) (and (and (or (or (or x143 (or x114 x100)) x56) x61) (or (or x138 (or (or x90 x122) x143)) x1)) (and (and (and (and (or (or x105 (or (or x91 x110) x29)) x41) (or (or (or x29 (or x157 x103)) x27) x23)) (and (or x57 (or (or (or x85 x147) x99) x45)) (or (or (or (or x44 x71) x99) x149) x51))) (and (or x81 (or (or (or x124 x18) x58) x104)) (or (or x109 (or (or x55 x152) x58)) x118))) (and (or (or (or (or x36 x52) x126) x156) x135) (or (or (or x126 (or x28 x21)) x139) x26))))) (and (and (or (or (or x56 (or x80 x24)) x19) x107) (or x106 (or x19 (or (or x87 x74) x138)))) (and (and (and (or x92 (or x65 (or x109 (or x125 x35)))) (or (or (or x104 (or x47 x70)) x65) x96)) (and (and (or x117 (or x129 (or (or x98 x46) x105))) (or (or x129 (or x27 (or x134 x150))) x3)) (and (or x146 (or x145 (or x45 (or x137 x5)))) (or x8 (or (or x149 (or x78 x132)) x145))))) (and (or (or (or x156 (or x32 x130)) x142) x77) (or x54 (or x142 (or x139 (or x42 x158)))))))) (and (and (or x140 (or (or (or x16 x43) x1) x107)) (or x140 (or x106 (or (or x141 x10) x61)))) (and (and (or (or (or (or x159 x93) x135) x54) x76) (or x76 (or x77 (or (or x69 x148) x26)))) (and (and (or x154 (or (or (or x88 x33) x81) x92)) (or (or (or (or x121 x84) x118) x96) x154)) (and (and (or x111 (or (or (or x102 x13) x51) x146)) (or x111 (or (or x57 (or x75 x40)) x8))) (and (or (or (or (or x128 x9) x23) x117) x20) (or (or x3 (or x41 (or x94 x83))) x20))))))))))
(assert (and (= x155 (x50 x49 x49)) (and (and (= (x50 x127 x59) x89) (= x59 (x50 x127 x127))) (= x49 (x50 x89 x89)))))
(assert (let ((x2 (x50 x59 x59)) (x151 (x50 x155 x49)) (x86 (x50 x49 x49)) (x11 (x50 x127 x127)) (x123 (x50 x155 x89)) (x39 (x50 x89 x155)) (x31 (x50 x89 x89)) (x95 (x50 x89 x59)) (x153 (x50 x49 x155)) (x37 (x50 x49 x59)) (x48 (x50 x155 x155)) (x17 (x50 x59 x127)) (x68 (x50 x49 x89)) (x112 (x50 x155 x127)) (x116 (x50 x155 x59)) (x73 (x50 x127 x89)) (x115 (x50 x127 x155)) (x66 (x50 x59 x155)) (x108 (x50 x59 x89)) (x62 (x50 x89 x49)) (x6 (x50 x89 x127)) (x79 (x50 x127 x59)) (x63 (x50 x49 x127)) (x53 (x50 x127 x49)) (x113 (x50 x59 x49))) (and (and (and (or (or (or (not (= x86 x86)) (or (not (= x113 x37)) (not (= x68 x62)))) (not (= x153 x151))) (not (= x53 x63))) (and (or (not (= x79 x17)) (or (not (= x66 x116)) (or (or (not (= x2 x2)) (not (= x95 x108))) (not (= x113 x37))))) (or (or (not (= x39 x123)) (or (or (not (= x31 x31)) (not (= x95 x108))) (not (= x62 x68)))) (not (= x73 x6))))) (or (or (or (or (not (= x66 x116)) (not (= x123 x39))) (not (= x151 x153))) (not (= x48 x48))) (not (= x115 x112)))) (or (not (= x11 x11)) (or (or (not (= x53 x63)) (or (not (= x6 x73)) (not (= x79 x17)))) (not (= x115 x112)))))))
(assert (or (or (= (x50 (x50 x155 x155) x155) x155) (or (or (= x59 (x50 (x50 x59 x59) x59)) (= x89 (x50 (x50 x89 x89) x89))) (= (x50 (x50 x49 x49) x49) x49))) (= (x50 (x50 x127 x127) x127) x127)))
(assert (or (or (or (or (and (not (= x127 (x50 x59 (x50 x59 x127)))) (and (and (and (not (= (x50 x59 (x50 x59 x59)) x59)) (not (= x89 (x50 x59 (x50 x59 x89))))) (not (= x49 (x50 x59 (x50 x59 x49))))) (not (= x155 (x50 x59 (x50 x59 x155)))))) (and (and (and (and (not (= (x50 x89 (x50 x89 x89)) x89)) (not (= (x50 x89 (x50 x89 x59)) x59))) (not (= (x50 x89 (x50 x89 x49)) x49))) (not (= (x50 x89 (x50 x89 x155)) x155))) (not (= x127 (x50 x89 (x50 x89 x127)))))) (and (and (not (= x155 (x50 x49 (x50 x49 x155)))) (and (not (= x49 (x50 x49 (x50 x49 x49)))) (and (not (= x59 (x50 x49 (x50 x49 x59)))) (not (= x89 (x50 x49 (x50 x49 x89))))))) (not (= x127 (x50 x49 (x50 x49 x127)))))) (and (and (not (= (x50 x155 (x50 x155 x155)) x155)) (and (not (= x49 (x50 x155 (x50 x155 x49)))) (and (not (= x59 (x50 x155 (x50 x155 x59)))) (not (= (x50 x155 (x50 x155 x89)) x89))))) (not (= (x50 x155 (x50 x155 x127)) x127)))) (and (not (= x127 (x50 x127 (x50 x127 x127)))) (and (and (and (not (= (x50 x127 (x50 x127 x89)) x89)) (not (= x59 (x50 x127 (x50 x127 x59))))) (not (= (x50 x127 (x50 x127 x49)) x49))) (not (= (x50 x127 (x50 x127 x155)) x155))))))
(assert (not (and (= (x50 x127 x127) x59) (and (and (and (= (x50 x127 x89) x155) (and (and (= (x50 x155 x127) x155) (and (and (= x89 (x50 x155 x49)) (and (= x127 (x50 x155 x89)) (and (= (x50 x155 x59) x49) (and (= x49 (x50 x49 x127)) (and (= (x50 x49 x155) x127) (and (= x155 (x50 x49 x49)) (and (and (= x59 (x50 x49 x59)) (and (and (and (and (and (= x155 (x50 x89 x59)) (and (= x89 (x50 x59 x127)) (and (and (= (x50 x59 x49) x49) (and (= (x50 x59 x59) x127) (= x59 (x50 x59 x89)))) (= x155 (x50 x59 x155))))) (= (x50 x89 x89) x49)) (= (x50 x89 x49) x59)) (= (x50 x89 x155) x89)) (= (x50 x89 x127) x127))) (= x89 (x50 x49 x89))))))))) (= (x50 x155 x155) x59))) (= x89 (x50 x127 x59)))) (= x127 (x50 x127 x49))) (= (x50 x127 x155) x49)))))
(assert (and (and (and (and (not (= x59 (x50 x59 (x50 x59 x59)))) (not (= (x50 x89 (x50 x89 x89)) x89))) (not (= x49 (x50 x49 (x50 x49 x49))))) (not (= (x50 x155 (x50 x155 x155)) x155))) (not (= (x50 x127 (x50 x127 x127)) x127))))
(assert (let ((x101 (x50 x59 x155)) (x85 (x50 x49 x155)) (x38 (x50 x89 x59)) (x157 (x50 x155 x89)) (x147 (x50 x49 x127)) (x91 (x50 x127 x89)) (x25 (x50 x89 x155)) (x64 (x50 x59 x127)) (x7 (x50 x59 x49)) (x110 (x50 x127 x49)) (x12 (x50 x127 x59)) (x4 (x50 x89 x127)) (x103 (x50 x155 x49)) (x71 (x50 x49 x89)) (x99 (x50 x155 x59)) (x144 (x50 x155 x127)) (x72 (x50 x155 x155)) (x22 (x50 x127 x127)) (x119 (x50 x59 x89)) (x44 (x50 x49 x49)) (x30 (x50 x49 x59)) (x29 (x50 x127 x155)) (x136 (x50 x89 x49)) (x14 (x50 x59 x59)) (x67 (x50 x89 x89))) (let ((x113 (= x7 x59)) (x53 (= x127 x110)) (x153 (= x49 x85)) (x63 (= x49 x147)) (x79 (= x127 x12)) (x62 (= x89 x136)) (x86 (= x44 x49)) (x151 (= x155 x103)) (x37 (= x49 x30)) (x2 (= x59 x14)) (x6 (= x4 x89)) (x115 (= x29 x127)) (x39 (= x89 x25)) (x66 (= x101 x59)) (x112 (= x155 x144)) (x17 (= x64 x59)) (x123 (= x157 x155)) (x95 (= x89 x38)) (x31 (= x67 x89)) (x68 (= x71 x49)) (x108 (= x59 x119)) (x73 (= x91 x127)) (x116 (= x99 x155)) (x11 (= x127 x22)) (x48 (= x155 x72))) (and (or (or (or (and x115 x112) (or (and x48 x48) (or (and x151 x153) (or (and x116 x66) (and x39 x123))))) (or (or (or (and x73 x6) (or (and x39 x123) (or (or (and x108 x95) (and x31 x31)) (and x68 x62)))) (or (or (or (or (and x2 x2) (and x108 x95)) (and x113 x37)) (and x66 x116)) (and x79 x17))) (or (or (and x153 x151) (or (and x86 x86) (or (and x62 x68) (and x37 x113)))) (and x53 x63)))) (or (and x11 x11) (or (or (and x53 x63) (or (and x17 x79) (and x6 x73))) (and x115 x112)))) (or (or (and (and (and (and (not (= (x50 x89 x157) x89)) (not (= x59 (x50 x59 x99)))) (not (= (x50 x49 x103) x49))) (not (= (x50 x155 x72) x155))) (not (= x127 (x50 x127 x144)))) (or (and (not (= (x50 x127 x147) x127)) (and (and (and (not (= x59 (x50 x59 x30))) (not (= (x50 x89 x71) x89))) (not (= (x50 x49 x44) x49))) (not (= x155 (x50 x155 x85))))) (or (and (and (and (not (= x49 (x50 x49 x136))) (and (not (= x89 (x50 x89 x67))) (not (= (x50 x59 x38) x59)))) (not (= (x50 x155 x25) x155))) (not (= x127 (x50 x127 x4)))) (and (not (= (x50 x127 x64) x127)) (and (not (= x155 (x50 x155 x101))) (and (and (not (= x89 (x50 x89 x119))) (not (= x59 (x50 x59 x14)))) (not (= (x50 x49 x7) x49)))))))) (and (and (and (not (= x49 (x50 x49 x110))) (and (not (= x89 (x50 x89 x91))) (not (= (x50 x59 x12) x59)))) (not (= x155 (x50 x155 x29)))) (not (= x127 (x50 x127 x22)))))))))
(assert (and (not (= (x50 x127 x127) x127)) (and (and (not (= (x50 x49 x49) x49)) (and (not (= (x50 x89 x89) x89)) (not (= x59 (x50 x59 x59))))) (not (= x155 (x50 x155 x155))))))
(check-sat)
(exit)
